
List of user-set options:

                                    Name   Value                used
                           compl_inf_tol = 1                     yes
                         constr_viol_tol = 1                     yes
                            dual_inf_tol = 1000                  yes
                           linear_solver = ma97                  yes
                              ma86_small = 1e-30                  no
                                  ma86_u = 0.0001                 no
                              ma97_order = best                  yes
                              ma97_small = 1e-30                 yes
                            ma97_switch1 = at_start              yes
                            ma97_switch2 = od_hd_reuse           yes
                                  ma97_u = 1e-06                 yes
                               ma97_umax = 0.5                   yes
                                max_iter = 1000                  yes
                    max_refinement_steps = 20                    yes
                    min_refinement_steps = 5                     yes
                                 mu_init = 1e-06                 yes
           mu_superlinear_decrease_power = 1.25                  yes
                   nlp_scaling_min_value = 1e-08                 yes
                        option_file_name = Preset_Case_899_pf.opt  yes
                             output_file = ./tmp/Preset_Case_899_pf.output  yes
                      print_user_options = yes                   yes
        required_infeasibility_reduction = 1                      no
                                     tol = 1e-08                 yes
                   warm_start_bound_frac = 1e-20                 yes
                   warm_start_bound_push = 1e-20                 yes
                   warm_start_init_point = yes                   yes
              warm_start_mult_bound_push = 1e-20                 yes
                warm_start_mult_init_max = 1e+40                 yes
             warm_start_slack_bound_frac = 1e-20                 yes
             warm_start_slack_bound_push = 1e-20                 yes

******************************************************************************
This program contains Ipopt, a library for large-scale nonlinear optimization.
 Ipopt is released as open source code under the Eclipse Public License (EPL).
         For more information visit http://projects.coin-or.org/Ipopt
******************************************************************************

This is Ipopt version 3.12.10, running with linear solver ma97.

Number of nonzeros in equality constraint Jacobian...:   123443
Number of nonzeros in inequality constraint Jacobian.:      213
Number of nonzeros in Lagrangian Hessian.............:    49069

Total number of variables............................:    31591
                     variables with only lower bounds:    12912
                variables with lower and upper bounds:    15130
                     variables with only upper bounds:        0
Total number of equality constraints.................:    31483
Total number of inequality constraints...............:       25
        inequality constraints with only lower bounds:        4
   inequality constraints with lower and upper bounds:        0
        inequality constraints with only upper bounds:       21

iter    objective    inf_pr   inf_du lg(mu)  ||d||  lg(rg) alpha_du alpha_pr  ls
   0 -5.0379350e+00 4.05e-03 1.02e+00  -6.0 0.00e+00    -  0.00e+00 0.00e+00   0
   1 -5.0373753e+00 3.62e-02 2.10e+00  -6.0 4.66e+05    -  1.11e-04 9.56e-05h  5
   2 -5.0393903e+00 3.62e-02 5.10e+01  -6.0 1.21e+04    -  2.26e-01 1.95e-03h  1
   3 -5.3098034e+00 3.19e+00 1.50e+03  -6.0 1.21e+04    -  1.63e-01 2.63e-01f  1
   4 -5.4820302e+00 4.28e+00 1.91e+03  -6.0 5.92e+03    -  3.85e-02 3.30e-01h  1
   5 -5.4977928e+00 4.57e+00 1.77e+03  -6.0 5.13e+03    -  1.13e-02 8.48e-02h  1
   6 -5.5535333e+00 2.82e+01 1.52e+03  -6.0 4.47e+03    -  8.34e-02 2.29e-01h  1
   7 -5.5525787e+00 2.75e+01 1.49e+03  -6.0 4.81e+00  -4.0 1.51e-02 2.33e-02h  1
   8 -5.5506805e+00 2.61e+01 1.42e+03  -6.0 5.64e+01  -4.5 3.17e-02 5.13e-02h  1
   9 -5.5403738e+00 1.59e+01 8.40e+02  -6.0 2.22e+01  -5.0 1.70e-01 3.89e-01h  1
iter    objective    inf_pr   inf_du lg(mu)  ||d||  lg(rg) alpha_du alpha_pr  ls
  10 -5.5493389e+00 9.46e-02 1.13e+02  -6.0 5.30e+01  -5.4 5.81e-01 1.00e+00h  1
  11 -5.5563463e+00 2.29e-01 1.13e+02  -6.0 3.88e+03    -  2.28e-01 2.60e-02h  1
  12 -5.6159376e+00 2.09e+01 1.59e+02  -6.0 3.58e+03    -  3.17e-01 2.69e-01h  1
  13 -5.6221241e+00 2.18e+01 1.54e+02  -6.0 5.53e+03    -  6.93e-02 5.75e-02h  1
  14 -5.6585939e+00 6.59e+01 2.01e+02  -6.0 1.04e+04    -  1.44e-01 1.45e-01h  1
  15 -5.6696019e+00 6.26e+01 1.47e+03  -6.0 1.90e+04    -  3.28e-02 5.00e-02h  1
  16 -5.6738225e+00 4.49e+01 1.50e+04  -6.0 7.87e+01  -5.9 1.07e-02 2.83e-01h  1
  17 -5.6908655e+00 4.41e-01 1.21e+04  -6.0 7.41e+01  -6.4 2.86e-01 1.00e+00h  1
  18 -5.7106927e+00 4.13e-01 7.15e+03  -6.0 3.84e+03    -  1.32e-01 8.29e-02h  1
  19 -5.7627271e+00 2.07e+00 5.42e+03  -6.0 3.31e+03    -  2.64e-01 2.66e-01h  1
iter    objective    inf_pr   inf_du lg(mu)  ||d||  lg(rg) alpha_du alpha_pr  ls
  20 -5.7681324e+00 1.99e+00 7.96e+04  -6.0 2.66e+03    -  6.74e-01 5.83e-02h  1
  21 -5.8202472e+00 6.25e+00 4.19e+04  -6.0 2.57e+03    -  6.75e-01 5.65e-01h  1
  22 -5.8229239e+00 5.65e+00 1.65e+05  -6.0 1.60e+03    -  4.59e-01 1.03e-01h  1
  23 -5.8410561e+00 3.27e+01 1.23e+05  -6.0 1.62e+03    -  1.00e+00 7.45e-01h  1
  24 -5.8468997e+00 5.99e+01 9.62e+04  -6.0 5.96e+03    -  2.18e-01 2.17e-01h  1
  25 -5.8477388e+00 5.87e+01 1.45e+06  -6.0 1.78e+03    -  2.80e-01 2.07e-02h  1
  26 -5.8495491e+00 5.63e+01 5.80e+06  -6.0 1.73e+03    -  1.00e+00 4.21e-02h  1
  27r-5.8495491e+00 5.63e+01 1.00e+03   1.7 0.00e+00    -  0.00e+00 4.10e-07R  2
  28r-5.8530023e+00 5.63e+01 1.00e+03   1.7 2.21e+05    -  9.24e-08 4.59e-08f  1
  29 -5.8523175e+00 5.15e+01 8.16e+04  -6.0 7.74e+02    -  1.06e-06 8.65e-02h  1
iter    objective    inf_pr   inf_du lg(mu)  ||d||  lg(rg) alpha_du alpha_pr  ls
  30 -5.8492706e+00 3.29e+01 5.22e+04  -6.0 2.05e+01    -  5.33e-02 3.60e-01h  1
  31 -5.8483171e+00 2.57e+01 4.06e+04  -6.0 1.25e+01    -  4.78e-01 2.21e-01h  1
  32 -5.8464982e+00 8.36e+00 1.32e+04  -6.0 9.62e+00    -  6.61e-01 6.75e-01h  1
  33 -5.8490213e+00 3.85e-03 1.98e+01  -6.0 3.84e+00    -  7.99e-01 1.00e+00h  1
  34 -5.8510527e+00 2.88e-03 2.42e+01  -6.0 3.30e+00    -  6.27e-01 2.53e-01h  1
  35 -5.8575254e+00 8.49e-03 3.01e+00  -6.0 9.16e+00    -  9.04e-01 8.51e-01f  1
  36 -5.8580997e+00 9.58e-03 2.85e+02  -6.0 7.36e+01    -  8.29e-01 2.38e-01f  1
  37 -5.8699064e+00 1.24e+00 1.68e+02  -6.0 6.01e+02    -  4.04e-01 3.45e-01h  1
  38 -5.8716434e+00 3.43e-01 4.07e+04  -6.0 1.16e+02    -  8.67e-01 7.25e-01h  1
  39 -5.8834090e+00 1.06e+00 7.12e+04  -6.0 1.40e+03    -  1.37e-01 1.17e-01h  1
iter    objective    inf_pr   inf_du lg(mu)  ||d||  lg(rg) alpha_du alpha_pr  ls
  40 -5.8992575e+00 1.21e+00 1.56e+05  -6.0 3.78e+02    -  8.53e-01 7.01e-01h  1
  41r-5.8992575e+00 1.21e+00 1.00e+03   0.1 0.00e+00    -  0.00e+00 3.66e-07R  2
  42r-5.9047582e+00 1.21e+00 1.00e+03   0.1 1.32e+04    -  6.64e-06 1.54e-06f  1
  43 -5.9046089e+00 1.18e+00 3.08e+05  -6.0 1.20e+01    -  2.10e-01 1.91e-02h  1
  44 -5.9000567e+00 8.73e-01 4.55e+06  -6.0 1.14e+01    -  1.91e-02 2.62e-01h  1
  45 -5.8981204e+00 3.64e-01 1.89e+06  -6.0 9.70e+00    -  1.99e-01 5.84e-01h  1
  46 -5.8987898e+00 3.51e-01 1.82e+06  -6.0 5.42e+00    -  8.68e-01 3.71e-02h  1
  47 -5.8952084e+00 7.04e-02 5.14e+01  -6.0 1.84e+01  -5.1 7.95e-01 1.00e+00h  1
  48 -5.8954812e+00 6.21e-02 1.62e+02  -6.0 6.50e+00    -  9.03e-01 1.20e-01h  1
  49 -5.8989105e+00 3.86e-01 4.86e+01  -6.0 5.06e+01  -5.5 9.15e-01 8.08e-01h  1
iter    objective    inf_pr   inf_du lg(mu)  ||d||  lg(rg) alpha_du alpha_pr  ls
  50 -5.9035809e+00 4.22e-01 4.08e+01  -6.0 5.15e+02    -  3.37e-01 1.16e-01h  1
  51 -5.9128893e+00 9.55e-01 4.48e+01  -6.0 3.00e+02    -  9.03e-01 5.56e-01h  1
  52 -5.9129163e+00 9.54e-01 1.08e+03  -6.0 7.20e+02    -  8.83e-03 9.93e-04h  1
  53 -5.9123611e+00 7.63e-01 2.87e+04  -6.0 3.56e+02    -  1.92e-02 4.46e-01h  1
  54 -5.9066069e+00 7.53e-01 6.59e+03  -6.0 1.63e+02  -6.0 9.34e-03 9.02e-01h  1
  55 -5.9065236e+00 6.78e-01 5.91e+03  -6.0 7.12e+00  -5.6 2.52e-01 9.96e-02h  1
  56 -5.9066000e+00 7.40e-01 2.29e+03  -6.0 3.01e+02    -  8.84e-01 6.12e-01f  1
  57 -5.9067039e+00 1.07e+00 1.96e+03  -6.0 1.36e+03    -  8.55e-01 1.45e-01h  2
  58 -5.9062792e+00 5.34e-01 9.77e+02  -6.0 5.43e+01  -6.1 1.07e-02 5.00e-01h  1
  59 -5.9063761e+00 7.44e-01 9.33e+02  -6.0 2.57e+03    -  8.99e-01 4.52e-02h  4
iter    objective    inf_pr   inf_du lg(mu)  ||d||  lg(rg) alpha_du alpha_pr  ls
  60 -5.9064863e+00 1.06e+00 8.83e+02  -6.0 2.68e+03    -  8.50e-01 5.35e-02h  4
  61 -5.9067332e+00 2.31e+00 7.70e+02  -6.0 2.22e+03    -  1.00e+00 1.29e-01h  3
  62 -5.9068311e+00 2.35e+00 7.26e+02  -6.0 1.75e+03    -  1.00e+00 5.72e-02h  4
  63 -5.9069167e+00 2.35e+00 6.86e+02  -6.0 1.59e+03    -  1.00e+00 5.42e-02h  5
  64 -5.9079232e+00 1.70e+01 2.35e+02  -6.0 1.50e+03    -  1.00e+00 6.57e-01h  1
  65 -5.9082636e+00 1.02e+01 1.08e+02  -6.0 7.77e+02    -  7.24e-01 5.39e-01h  1
  66 -5.9082641e+00 9.93e+00 1.05e+02  -6.0 1.70e+03    -  4.63e-03 2.65e-02h  1
  67 -5.9081524e+00 8.35e+00 8.83e+01  -6.0 4.13e+01  -6.5 9.82e-02 1.59e-01h  1
  68 -5.9081042e+00 9.47e-03 1.78e+01  -6.0 1.73e+01  -7.0 6.01e-01 1.00e+00h  1
  69 -5.9082977e+00 1.80e+00 1.79e+01  -6.0 5.26e+03    -  8.51e-02 6.76e-02h  1
iter    objective    inf_pr   inf_du lg(mu)  ||d||  lg(rg) alpha_du alpha_pr  ls
  70 -5.9084347e+00 1.62e+00 1.75e+01  -6.0 1.85e+02  -7.5 2.90e-04 9.90e-02h  1
  71 -5.9084911e+00 1.74e+00 2.68e+02  -6.0 4.70e+02    -  7.34e-01 5.36e-01f  1
  72 -5.9087375e+00 1.36e+00 2.01e+01  -6.0 3.24e+02  -8.0 1.66e-01 2.18e-01h  1
  73 -5.9093563e+00 2.20e+00 1.84e+03  -6.0 1.03e+03    -  3.19e-01 2.50e-01h  1
  74 -5.9102420e+00 2.30e+00 5.21e+03  -6.0 7.47e+02    -  8.79e-02 3.17e-01h  1
  75 -5.9120941e+00 3.18e+00 7.47e+03  -6.0 6.13e+02    -  8.05e-01 6.24e-01h  1
  76 -5.9136472e+00 2.17e+00 4.29e+04  -6.0 4.10e+02    -  7.30e-01 3.81e-01h  1
  77 -5.9187718e+00 2.03e+00 7.24e+04  -6.0 3.67e+02    -  6.02e-01 1.00e+00h  1
  78 -5.9190143e+00 1.98e+00 2.48e+05  -6.0 3.67e+02    -  3.37e-01 2.14e-02h  1
  79 -5.9202578e+00 1.75e+00 2.12e+08  -6.0 5.64e+02    -  8.06e-04 2.94e-01h  1
iter    objective    inf_pr   inf_du lg(mu)  ||d||  lg(rg) alpha_du alpha_pr  ls
  80 -5.9302474e+00 1.10e+00 9.08e+07  -6.0 2.89e+02    -  2.80e-02 5.71e-01h  1
  81 -5.9216093e+00 6.23e-02 2.09e+04  -6.0 6.33e+01    -  9.12e-03 1.00e+00h  1
  82 -5.9239637e+00 2.65e-01 2.09e+03  -6.0 1.36e+02    -  1.00e+00 8.95e-01h  1
  83 -5.9207541e+00 9.57e-02 7.62e+00  -6.0 1.61e+02    -  1.00e+00 1.00e+00H  1
  84 -5.9229262e+00 2.56e-01 3.80e-01  -6.0 1.20e+02    -  1.00e+00 1.00e+00h  1
  85 -5.9224625e+00 4.39e-02 8.41e+00  -6.0 5.38e+01    -  9.39e-01 1.00e+00h  1
  86 -5.9224512e+00 3.45e-03 3.14e-02  -6.0 1.46e+01    -  1.00e+00 1.00e+00h  1
  87 -5.9224146e+00 4.08e-05 2.24e-05  -6.0 1.64e+00    -  1.00e+00 1.00e+00h  1
  88 -5.9224146e+00 2.85e-10 1.96e-11  -6.0 1.67e-03    -  1.00e+00 1.00e+00h  1
  89 -5.9225424e+00 2.82e+00 6.11e+01  -7.5 6.04e+02    -  5.02e-01 7.13e-01f  1
iter    objective    inf_pr   inf_du lg(mu)  ||d||  lg(rg) alpha_du alpha_pr  ls
  90 -5.9225409e+00 8.00e-01 1.00e+01  -7.5 1.63e+02    -  9.60e-01 8.18e-01h  1
  91 -5.9225356e+00 1.49e-02 2.28e-02  -7.5 3.01e+01    -  1.00e+00 1.00e+00h  1
  92 -5.9225355e+00 1.96e-05 9.06e-06  -7.5 1.13e+00    -  1.00e+00 1.00e+00h  1
  93 -5.9225355e+00 1.43e-09 1.07e-09  -7.5 9.57e-03    -  1.00e+00 1.00e+00h  1
  94 -5.9225370e+00 3.28e-03 8.39e-01  -9.0 1.74e+01    -  9.26e-01 8.35e-01h  1
  95 -5.9225373e+00 1.13e-04 1.55e-01  -9.0 2.69e+00    -  9.65e-01 1.00e+00h  1
  96 -5.9225373e+00 1.16e-09 4.57e-09  -9.0 8.76e-03    -  1.00e+00 1.00e+00h  1

Number of Iterations....: 96

                                   (scaled)                 (unscaled)
Objective...............:  -4.6269822723570009e+00   -5.9225373086169615e+00
Dual infeasibility......:   4.5662773400538753e-09    5.8448349952689602e-09
Constraint violation....:   9.5073918602759133e-10    1.1568772606551647e-09
Complementarity.........:   1.4074956220877140e-09    1.8015943962722739e-09
Overall NLP error.......:   4.5662773400538753e-09    5.8448349952689602e-09


Number of objective function evaluations             = 136
Number of objective gradient evaluations             = 97
Number of equality constraint evaluations            = 136
Number of inequality constraint evaluations          = 136
Number of equality constraint Jacobian evaluations   = 99
Number of inequality constraint Jacobian evaluations = 99
Number of Lagrangian Hessian evaluations             = 96
Total CPU secs in IPOPT (w/o function evaluations)   =    193.648
Total CPU secs in NLP function evaluations           =      3.975

EXIT: Optimal Solution Found.
